Se Sn                                   
 1.
    11.3088173524055779    0.0000000000000000    0.0000000000000000
     0.0000000000000000    4.1191279301786077   -0.0000000000000002
     0.0000000000000000   -0.0000000000000010    4.3005285161744755
   Se   Sn
     4     4
Direct
  0.8579877737224635  0.2500000000000000  0.4750854258024830
  0.1420122262775365  0.7500000000000000  0.5249145741975170
  0.6420122262775365  0.7500000000000000  0.9750854258024830
  0.3579877737224635  0.2500000000000000  0.0249145741975170
  0.1168900234755128  0.2500000000000000  0.0911091354661622
  0.8831099475244812  0.7500000000000000  0.9088908645338378
  0.3831099765244872  0.7500000000000000  0.5911091354661622
  0.6168900524755188  0.2500000000000000  0.4088908645338378
 
  0.00000000E+00  0.00000000E+00  0.00000000E+00
  0.00000000E+00  0.00000000E+00  0.00000000E+00
  0.00000000E+00  0.00000000E+00  0.00000000E+00
  0.00000000E+00  0.00000000E+00  0.00000000E+00
  0.00000000E+00  0.00000000E+00  0.00000000E+00
  0.00000000E+00  0.00000000E+00  0.00000000E+00
  0.00000000E+00  0.00000000E+00  0.00000000E+00
  0.00000000E+00  0.00000000E+00  0.00000000E+00
